DAYS = anon_enum(2);
ROOMS = {r1, r2};
TIMES = {morning, noon};

people = anon_enum(2);
talks = {t01, t02, t03, t04, t05, t06,
         t07, t08};

pref = [| 4, 1, 4, 4, 1, 4, 1, 1
        | 1, 1, 4, 4, 4, 1, 1, 4
        |]